2299.18 0
0 94 87 176 164 180 20 36 121 86 91 160 33 0
0 126 183 168 132 120 186 191 54 62 185 67 0
0 96 188 95 105 53 194 167 171 173 166 79 128 0
0 148 21 64 152 101 156 198 195 97 56 147 145 73 0
0 181 146 18 8 70 68 153 15 59 141 89 137 155 138 37 0
0 92 1 163 172 189 57 125 12 9 24 129 169 182 0
0 159 114 115 113 117 110 104 112 111 108 109 118 107 0
0 99 187 31 162 75 25 39 106 50 60 175 34 127 78 157 135 0
0 81 150 170 84 133 19 85 119 77 10 80 131 130 0
0 139 184 23 74 69 71 100 124 52 65 5 136 66 0
0 35 178 28 140 151 3 16 82 55 72 161 17 0
0 44 42 40 116 51 46 45 43 154 47 48 0
0 26 149 177 190 165 32 197 41 90 38 142 22 93 0
0 29 103 88 196 199 143 192 158 193 61 0
0 30 13 102 7 179 134 14 11 76 144 49 6 0
0 63 4 58 174 122 123 83 27 2 98 0